WARNING: for repeatability, setting FPU to use double precision
============================[ Problem Statistics ]=============================
|                                                                             |
|  Number of variables:            50                                         |
|  Number of clauses:             218                                         |
|  Parse time:                   0.00 s                                       |
|                                                                             |
============================[ Search Statistics ]==============================
| Conflicts |          ORIGINAL         |          LEARNT          | Progress |
|           |    Vars  Clauses Literals |    Limit  Clauses Lit/Cl |          |
===============================================================================
===============================================================================
restarts              : 1
conflicts             : 34             (24513 /sec)
decisions             : 42             (0.00 % random) (30281 /sec)
propagations          : 422            (304254 /sec)
conflict literals     : 94             (12.96 % deleted)
Memory used           : 20.00 MB
CPU time              : 0.001387 s

UNSATISFIABLE
